x = 17;
y = 16;
c = 80;
n = 68;

p = [100  96  25  17  96  74  46  47  39  18  99  86  85  70  47  27  86  62  17  68  64  13  95  47  23  55  96  29  25  28  77  40  14  53  67  93  20  89  17  16  34  72  60  34  22  46  55  54  62  48  66  94  91  54  56  33  65  96  73  68  72  68  40  43  73  86  52  94];
w = [3  8  7  10  1  1  3  2  9  6  8  7  6  3  1  1  3  4  10  3  6  8  4  6  8  1  8  5  2  8  9  2  10  7  3  7  6  3  9  2  2  9  7  7  1  1  2  7  5  6  7  4  6  7  6  4  9  10  2  1  7  1  1  10  7  3  6  10];
s = [7  2  12  6  11  15  5  16  4  3  7  7  16  3  4  15  7  16  6  16  15  7  7  15  6  9  1  2  3  4  16  11  14  1  4  15  4  11  10  11  1  9  2  7  3  8  10  9  9  5  11  7  7  9  10  10  13  11  12  5  11  1  7  4  2  12  6  7];
